19 17 1 91 5 11 73 43 46 74 38 89 81 68 25 71 93 18 6 10 98 31 7 69 82 39 97 66 24 3 70 48 78 34 80 96 61 90 72 4 58 50 54 32 9 59 79 76 22 44 42 2 30 21 88 53 65 63 27 51 15 49 77 87 36 56 64 84 60 83 8 57 45 94 14 13 85 35 40 62 0 12 75 52 67 33 28 23 26 99 86 47 29 41 16 55 37 95 20 92 

